p cnf 386 460
-15 -9 -19 21 22 0
-15 -9 -19 21 -22 0
-15 -9 -19 -21 23 0
-15 -9 -19 -21 -23 0
-8 -4 -5 24 25 0
-8 -4 -5 24 -25 0
-8 -4 -5 -24 26 0
-8 -4 -5 -24 -26 0
2 5 -20 27 28 0
2 5 -20 27 -28 0
2 5 -20 -27 29 0
2 5 -20 -27 -29 0
19 5 -16 30 31 0
19 5 -16 30 -31 0
19 5 -16 -30 32 0
19 5 -16 -30 -32 0
-13 16 7 33 34 0
-13 16 7 33 -34 0
-13 16 7 -33 35 0
-13 16 7 -33 -35 0
-13 -20 12 36 37 0
-13 -20 12 36 -37 0
-13 -20 12 -36 38 0
-13 -20 12 -36 -38 0
-7 -18 -10 39 40 0
-7 -18 -10 39 -40 0
-7 -18 -10 -39 41 0
-7 -18 -10 -39 -41 0
-5 15 -4 42 43 0
-5 15 -4 42 -43 0
-5 15 -4 -42 44 0
-5 15 -4 -42 -44 0
-13 -14 11 45 46 0
-13 -14 11 45 -46 0
-13 -14 11 -45 47 0
-13 -14 11 -45 -47 0
10 -15 -13 48 49 0
10 -15 -13 48 -49 0
10 -15 -13 -48 50 0
10 -15 -13 -48 -50 0
14 20 -6 51 52 0
14 20 -6 51 -52 0
14 20 -6 -51 53 0
14 20 -6 -51 -53 0
11 -7 -20 54 55 0
11 -7 -20 54 -55 0
11 -7 -20 -54 56 0
11 -7 -20 -54 -56 0
-7 15 -4 57 58 0
-7 15 -4 57 -58 0
-7 15 -4 -57 59 0
-7 15 -4 -57 -59 0
-6 2 17 60 61 0
-6 2 17 60 -61 0
-6 2 17 -60 62 0
-6 2 17 -60 -62 0
8 -18 14 63 64 0
8 -18 14 63 -64 0
8 -18 14 -63 65 0
8 -18 14 -63 -65 0
2 17 14 66 67 0
2 17 14 66 -67 0
2 17 14 -66 68 0
2 17 14 -66 -68 0
-16 -13 5 69 70 0
-16 -13 5 69 -70 0
-16 -13 5 -69 71 0
-16 -13 5 -69 -71 0
-4 -7 -14 72 73 0
-4 -7 -14 72 -73 0
-4 -7 -14 -72 74 0
-4 -7 -14 -72 -74 0
-17 4 -16 75 76 0
-17 4 -16 75 -76 0
-17 4 -16 -75 77 0
-17 4 -16 -75 -77 0
-3 6 -11 78 79 0
-3 6 -11 78 -79 0
-3 6 -11 -78 80 0
-3 6 -11 -78 -80 0
-12 19 -13 81 82 0
-12 19 -13 81 -82 0
-12 19 -13 -81 83 0
-12 19 -13 -81 -83 0
12 -18 1 84 85 0
12 -18 1 84 -85 0
12 -18 1 -84 86 0
12 -18 1 -84 -86 0
13 -17 11 87 88 0
13 -17 11 87 -88 0
13 -17 11 -87 89 0
13 -17 11 -87 -89 0
6 8 -13 90 91 0
6 8 -13 90 -91 0
6 8 -13 -90 92 0
6 8 -13 -90 -92 0
-19 5 10 93 94 0
-19 5 10 93 -94 0
-19 5 10 -93 95 0
-19 5 10 -93 -95 0
6 -7 -20 96 97 0
6 -7 -20 96 -97 0
6 -7 -20 -96 98 0
6 -7 -20 -96 -98 0
14 -9 17 99 100 0
14 -9 17 99 -100 0
14 -9 17 -99 101 0
14 -9 17 -99 -101 0
15 12 2 102 103 0
15 12 2 102 -103 0
15 12 2 -102 104 0
15 12 2 -102 -104 0
-15 -14 9 105 106 0
-15 -14 9 105 -106 0
-15 -14 9 -105 107 0
-15 -14 9 -105 -107 0
-2 18 17 108 109 0
-2 18 17 108 -109 0
-2 18 17 -108 110 0
-2 18 17 -108 -110 0
2 11 -4 111 112 0
2 11 -4 111 -112 0
2 11 -4 -111 113 0
2 11 -4 -111 -113 0
-18 10 -17 114 115 0
-18 10 -17 114 -115 0
-18 10 -17 -114 116 0
-18 10 -17 -114 -116 0
-15 3 10 117 118 0
-15 3 10 117 -118 0
-15 3 10 -117 119 0
-15 3 10 -117 -119 0
3 -4 -11 120 121 0
3 -4 -11 120 -121 0
3 -4 -11 -120 122 0
3 -4 -11 -120 -122 0
-2 -13 -15 123 124 0
-2 -13 -15 123 -124 0
-2 -13 -15 -123 125 0
-2 -13 -15 -123 -125 0
19 8 3 126 127 0
19 8 3 126 -127 0
19 8 3 -126 128 0
19 8 3 -126 -128 0
-20 -19 6 129 130 0
-20 -19 6 129 -130 0
-20 -19 6 -129 131 0
-20 -19 6 -129 -131 0
-7 -9 18 132 133 0
-7 -9 18 132 -133 0
-7 -9 18 -132 134 0
-7 -9 18 -132 -134 0
-20 2 15 135 136 0
-20 2 15 135 -136 0
-20 2 15 -135 137 0
-20 2 15 -135 -137 0
-15 -20 -5 138 139 0
-15 -20 -5 138 -139 0
-15 -20 -5 -138 140 0
-15 -20 -5 -138 -140 0
-16 -20 -1 141 142 0
-16 -20 -1 141 -142 0
-16 -20 -1 -141 143 0
-16 -20 -1 -141 -143 0
-16 -18 -5 144 145 0
-16 -18 -5 144 -145 0
-16 -18 -5 -144 146 0
-16 -18 -5 -144 -146 0
19 -11 -16 147 148 0
19 -11 -16 147 -148 0
19 -11 -16 -147 149 0
19 -11 -16 -147 -149 0
-11 -14 -10 150 151 0
-11 -14 -10 150 -151 0
-11 -14 -10 -150 152 0
-11 -14 -10 -150 -152 0
-5 -16 -2 153 154 0
-5 -16 -2 153 -154 0
-5 -16 -2 -153 155 0
-5 -16 -2 -153 -155 0
-13 -15 10 156 157 0
-13 -15 10 156 -157 0
-13 -15 10 -156 158 0
-13 -15 10 -156 -158 0
-9 -19 -20 159 160 0
-9 -19 -20 159 -160 0
-9 -19 -20 -159 161 0
-9 -19 -20 -159 -161 0
-3 13 -7 162 163 0
-3 13 -7 162 -163 0
-3 13 -7 -162 164 0
-3 13 -7 -162 -164 0
9 -16 -7 165 166 0
9 -16 -7 165 -166 0
9 -16 -7 -165 167 0
9 -16 -7 -165 -167 0
-1 15 9 168 169 0
-1 15 9 168 -169 0
-1 15 9 -168 170 0
-1 15 9 -168 -170 0
-7 -4 -11 171 172 0
-7 -4 -11 171 -172 0
-7 -4 -11 -171 173 0
-7 -4 -11 -171 -173 0
7 16 -14 174 175 0
7 16 -14 174 -175 0
7 16 -14 -174 176 0
7 16 -14 -174 -176 0
4 10 3 177 178 0
4 10 3 177 -178 0
4 10 3 -177 179 0
4 10 3 -177 -179 0
-7 -14 -5 180 181 0
-7 -14 -5 180 -181 0
-7 -14 -5 -180 182 0
-7 -14 -5 -180 -182 0
-5 -18 -11 183 184 0
-5 -18 -11 183 -184 0
-5 -18 -11 -183 185 0
-5 -18 -11 -183 -185 0
14 -18 -3 186 187 0
14 -18 -3 186 -187 0
14 -18 -3 -186 188 0
14 -18 -3 -186 -188 0
-19 3 15 189 190 0
-19 3 15 189 -190 0
-19 3 15 -189 191 0
-19 3 15 -189 -191 0
3 -12 -5 192 193 0
3 -12 -5 192 -193 0
3 -12 -5 -192 194 0
3 -12 -5 -192 -194 0
-8 10 -18 195 196 0
-8 10 -18 195 -196 0
-8 10 -18 -195 197 0
-8 10 -18 -195 -197 0
-4 -5 6 198 199 0
-4 -5 6 198 -199 0
-4 -5 6 -198 200 0
-4 -5 6 -198 -200 0
-10 14 7 201 202 0
-10 14 7 201 -202 0
-10 14 7 -201 203 0
-10 14 7 -201 -203 0
11 13 20 204 205 0
11 13 20 204 -205 0
11 13 20 -204 206 0
11 13 20 -204 -206 0
6 -12 13 207 208 0
6 -12 13 207 -208 0
6 -12 13 -207 209 0
6 -12 13 -207 -209 0
4 -20 19 210 211 0
4 -20 19 210 -211 0
4 -20 19 -210 212 0
4 -20 19 -210 -212 0
16 -4 10 213 214 0
16 -4 10 213 -214 0
16 -4 10 -213 215 0
16 -4 10 -213 -215 0
-6 10 20 216 217 0
-6 10 20 216 -217 0
-6 10 20 -216 218 0
-6 10 20 -216 -218 0
-18 -13 2 219 220 0
-18 -13 2 219 -220 0
-18 -13 2 -219 221 0
-18 -13 2 -219 -221 0
-19 -1 14 222 223 0
-19 -1 14 222 -223 0
-19 -1 14 -222 224 0
-19 -1 14 -222 -224 0
-1 -14 7 225 226 0
-1 -14 7 225 -226 0
-1 -14 7 -225 227 0
-1 -14 7 -225 -227 0
-4 -11 10 228 229 0
-4 -11 10 228 -229 0
-4 -11 10 -228 230 0
-4 -11 10 -228 -230 0
20 17 9 231 232 0
20 17 9 231 -232 0
20 17 9 -231 233 0
20 17 9 -231 -233 0
-15 -11 4 234 235 0
-15 -11 4 234 -235 0
-15 -11 4 -234 236 0
-15 -11 4 -234 -236 0
11 -7 -14 237 238 0
11 -7 -14 237 -238 0
11 -7 -14 -237 239 0
11 -7 -14 -237 -239 0
15 20 -14 240 241 0
15 20 -14 240 -241 0
15 20 -14 -240 242 0
15 20 -14 -240 -242 0
-20 16 -11 243 244 0
-20 16 -11 243 -244 0
-20 16 -11 -243 245 0
-20 16 -11 -243 -245 0
-7 6 -10 246 247 0
-7 6 -10 246 -247 0
-7 6 -10 -246 248 0
-7 6 -10 -246 -248 0
-1 10 5 249 250 0
-1 10 5 249 -250 0
-1 10 5 -249 251 0
-1 10 5 -249 -251 0
2 9 -1 252 253 0
2 9 -1 252 -253 0
2 9 -1 -252 254 0
2 9 -1 -252 -254 0
19 1 9 255 256 0
19 1 9 255 -256 0
19 1 9 -255 257 0
19 1 9 -255 -257 0
-8 3 16 258 259 0
-8 3 16 258 -259 0
-8 3 16 -258 260 0
-8 3 16 -258 -260 0
-5 14 -16 261 262 0
-5 14 -16 261 -262 0
-5 14 -16 -261 263 0
-5 14 -16 -261 -263 0
1 -2 4 264 265 0
1 -2 4 264 -265 0
1 -2 4 -264 266 0
1 -2 4 -264 -266 0
-12 -15 -14 267 268 0
-12 -15 -14 267 -268 0
-12 -15 -14 -267 269 0
-12 -15 -14 -267 -269 0
7 16 -15 270 271 0
7 16 -15 270 -271 0
7 16 -15 -270 272 0
7 16 -15 -270 -272 0
11 -5 15 273 274 0
11 -5 15 273 -274 0
11 -5 15 -273 275 0
11 -5 15 -273 -275 0
-14 7 -17 276 277 0
-14 7 -17 276 -277 0
-14 7 -17 -276 278 0
-14 7 -17 -276 -278 0
-14 9 -15 279 280 0
-14 9 -15 279 -280 0
-14 9 -15 -279 281 0
-14 9 -15 -279 -281 0
10 -16 13 282 283 0
10 -16 13 282 -283 0
10 -16 13 -282 284 0
10 -16 13 -282 -284 0
8 -9 3 285 286 0
8 -9 3 285 -286 0
8 -9 3 -285 287 0
8 -9 3 -285 -287 0
-1 -2 9 288 289 0
-1 -2 9 288 -289 0
-1 -2 9 -288 290 0
-1 -2 9 -288 -290 0
-17 -4 -9 291 292 0
-17 -4 -9 291 -292 0
-17 -4 -9 -291 293 0
-17 -4 -9 -291 -293 0
294 295 297 301 309 0
294 295 297 301 -309 0
294 295 297 -301 310 0
294 295 297 -301 -310 0
294 295 -297 302 311 0
294 295 -297 302 -311 0
294 295 -297 -302 312 0
294 295 -297 -302 -312 0
294 -295 298 303 313 0
294 -295 298 303 -313 0
294 -295 298 -303 314 0
294 -295 298 -303 -314 0
294 -295 -298 304 315 0
294 -295 -298 304 -315 0
294 -295 -298 -304 316 0
294 -295 -298 -304 -316 0
-294 296 299 305 317 0
-294 296 299 305 -317 0
-294 296 299 -305 318 0
-294 296 299 -305 -318 0
-294 296 -299 306 319 0
-294 296 -299 306 -319 0
-294 296 -299 -306 320 0
-294 296 -299 -306 -320 0
-294 -296 300 307 321 0
-294 -296 300 307 -321 0
-294 -296 300 -307 322 0
-294 -296 300 -307 -322 0
-294 -296 -300 308 323 0
-294 -296 -300 308 -323 0
-294 -296 -300 -308 324 0
-294 -296 -300 -308 -324 0
325 326 328 332 340 0
325 326 328 332 -340 0
325 326 328 -332 341 0
325 326 328 -332 -341 0
325 326 -328 333 342 0
325 326 -328 333 -342 0
325 326 -328 -333 343 0
325 326 -328 -333 -343 0
325 -326 329 334 344 0
325 -326 329 334 -344 0
325 -326 329 -334 345 0
325 -326 329 -334 -345 0
325 -326 -329 335 346 0
325 -326 -329 335 -346 0
325 -326 -329 -335 347 0
325 -326 -329 -335 -347 0
-325 327 330 336 348 0
-325 327 330 336 -348 0
-325 327 330 -336 349 0
-325 327 330 -336 -349 0
-325 327 -330 337 350 0
-325 327 -330 337 -350 0
-325 327 -330 -337 351 0
-325 327 -330 -337 -351 0
-325 -327 331 338 352 0
-325 -327 331 338 -352 0
-325 -327 331 -338 353 0
-325 -327 331 -338 -353 0
-325 -327 -331 339 354 0
-325 -327 -331 339 -354 0
-325 -327 -331 -339 355 0
-325 -327 -331 -339 -355 0
356 357 359 363 371 0
356 357 359 363 -371 0
356 357 359 -363 372 0
356 357 359 -363 -372 0
356 357 -359 364 373 0
356 357 -359 364 -373 0
356 357 -359 -364 374 0
356 357 -359 -364 -374 0
356 -357 360 365 375 0
356 -357 360 365 -375 0
356 -357 360 -365 376 0
356 -357 360 -365 -376 0
356 -357 -360 366 377 0
356 -357 -360 366 -377 0
356 -357 -360 -366 378 0
356 -357 -360 -366 -378 0
-356 358 361 367 379 0
-356 358 361 367 -379 0
-356 358 361 -367 380 0
-356 358 361 -367 -380 0
-356 358 -361 368 381 0
-356 358 -361 368 -381 0
-356 358 -361 -368 382 0
-356 358 -361 -368 -382 0
-356 -358 362 369 383 0
-356 -358 362 369 -383 0
-356 -358 362 -369 384 0
-356 -358 362 -369 -384 0
-356 -358 -362 370 385 0
-356 -358 -362 370 -385 0
-356 -358 -362 -370 386 0
-356 -358 -362 -370 -386 0

